files/upTests/n6/0001.eprime.solution
language ESSENCE' 1.0
$ minion Nodes: 2
$ minion TotalTime: 0.000566
$ Savile Row TotalTime: 0.199
letting x_SetExplicitVarSize_tuple2 be [5, 6, 4;int(1..3)]
letting x_SetExplicitVarSize_tuple1 be [true, true, false;int(1..3)]
